33134
1 0 0 0 1 1 0 0 1 0 1 0 1 0 0 0 0 0 0 1 0 1 0 0 0 1 0 1 1 0
27 19 21 27 21 12 21 27 27 28 4 28 10 5 28 27 8 10 27 0 27 21 5 0 10 27 27 19 4 21 19 19 4 21 27 12 8 8 27 21 25 8 12 4 8 19 8 21 19 19 0 21 21 21 8 12 25 8 27 25 4 0 25 8 8 12 5 19 28 25 25 12 19 8 5 10 10 5 8 21 10 0 8 25 4 10 19 5 27 12 28 19 25 25 0 8 28 12 0 28 28 21 12 25 4 0 4 27 27 8 19 4 27 12 12 8 28 25 0 8 8 25 28 19 4 21 21 12 19 0 28 21 12 10 5 8 8 8 28 10 12 27 12 25 25 5 27 21 27 25 0 0 10 0 8 28 5 21 8 8 10 27 10 0 5 27 5 4 8 21 5 8 19 10 4 21 0 10 4 10 5 21 21 19 12 8 28 10 0 21 21 21 19 4 25 12 25 21 10 19
